(set-info :smt-lib-version 2.6)
(set-logic UFNIA)
(set-info :source |
Generated by: Geoff Sutcliffe
Generated on: 2026-03-11
Generator: TPTPWorld
Application: Benchmarking automated theorem provers
Time limit: 120.0

These benchmarks are translations from the TPTP Library (Thousands of
Problems for Theorem Provers), see http://www.cs.miami.edu/~tptp/

The TPTP is maintained by Geoff Sutcliffe, and he contributed this
selection of benchmarks to SMT-LIB.  They were exported from the
v9.2.1 realease of TPTP.
|)
(set-info :category "industrial")
(set-info :status unknown)
; SZS status Success
(declare-sort $$unsorted 0)
(declare-sort tptp.uni 0)
(declare-sort tptp.ty 0)
(declare-fun tptp.sort (tptp.ty tptp.uni) Bool)
(declare-fun tptp.witness (tptp.ty) tptp.uni)
(assert (forall ((A tptp.ty)) (tptp.sort A (tptp.witness A))))
(declare-fun tptp.int () tptp.ty)
(declare-fun tptp.real () tptp.ty)
(declare-sort tptp.bool 0)
(declare-fun tptp.bool1 () tptp.ty)
(declare-fun tptp.true () tptp.bool)
(declare-fun tptp.false () tptp.bool)
(declare-fun tptp.match_bool (tptp.ty tptp.bool tptp.uni tptp.uni) tptp.uni)
(assert (forall ((A tptp.ty) (X tptp.bool) (X1 tptp.uni) (X2 tptp.uni)) (tptp.sort A (tptp.match_bool A X X1 X2))))
(assert (forall ((A tptp.ty) (Z tptp.uni) (Z1 tptp.uni)) (=> (tptp.sort A Z) (= (tptp.match_bool A tptp.true Z Z1) Z))))
(assert (forall ((A tptp.ty) (Z tptp.uni) (Z1 tptp.uni)) (=> (tptp.sort A Z1) (= (tptp.match_bool A tptp.false Z Z1) Z1))))
(assert (not (= tptp.true tptp.false)))
(assert (forall ((U tptp.bool)) (or (= U tptp.true) (= U tptp.false))))
(declare-sort tptp.tuple0 0)
(declare-fun tptp.tuple01 () tptp.ty)
(declare-fun tptp.tuple02 () tptp.tuple0)
(assert (forall ((U tptp.tuple0)) (= U tptp.tuple02)))
(declare-fun tptp.qtmark () tptp.ty)
(assert (forall ((X Int) (Y Int) (Z Int)) (=> (<= X Y) (=> (<= 0 Z) (<= (* X Z) (* Y Z))))))
(declare-fun tptp.ref (tptp.ty) tptp.ty)
(declare-fun tptp.mk_ref (tptp.ty tptp.uni) tptp.uni)
(assert (forall ((A tptp.ty) (X tptp.uni)) (tptp.sort (tptp.ref A) (tptp.mk_ref A X))))
(declare-fun tptp.contents (tptp.ty tptp.uni) tptp.uni)
(assert (forall ((A tptp.ty) (X tptp.uni)) (tptp.sort A (tptp.contents A X))))
(assert (forall ((A tptp.ty) (U tptp.uni)) (=> (tptp.sort A U) (= (tptp.contents A (tptp.mk_ref A U)) U))))
(assert (forall ((A tptp.ty) (U tptp.uni)) (=> (tptp.sort (tptp.ref A) U) (= U (tptp.mk_ref A (tptp.contents A U))))))
(declare-fun tptp.map (tptp.ty tptp.ty) tptp.ty)
(declare-fun tptp.get (tptp.ty tptp.ty tptp.uni tptp.uni) tptp.uni)
(assert (forall ((A tptp.ty) (B tptp.ty) (X tptp.uni) (X1 tptp.uni)) (tptp.sort B (tptp.get B A X X1))))
(declare-fun tptp.set (tptp.ty tptp.ty tptp.uni tptp.uni tptp.uni) tptp.uni)
(assert (forall ((A tptp.ty) (B tptp.ty) (X tptp.uni) (X1 tptp.uni) (X2 tptp.uni)) (tptp.sort (tptp.map A B) (tptp.set B A X X1 X2))))
(assert (forall ((A tptp.ty) (B tptp.ty) (M tptp.uni) (A1 tptp.uni) (A2 tptp.uni) (B1 tptp.uni)) (=> (tptp.sort B B1) (=> (= A1 A2) (= (tptp.get B A (tptp.set B A M A1 B1) A2) B1)))))
(assert (forall ((A tptp.ty) (B tptp.ty) (M tptp.uni) (A1 tptp.uni) (A2 tptp.uni)) (=> (tptp.sort A A1) (=> (tptp.sort A A2) (forall ((B1 tptp.uni)) (=> (not (= A1 A2)) (= (tptp.get B A (tptp.set B A M A1 B1) A2) (tptp.get B A M A2))))))))
(declare-fun tptp.const (tptp.ty tptp.ty tptp.uni) tptp.uni)
(assert (forall ((A tptp.ty) (B tptp.ty) (X tptp.uni)) (tptp.sort (tptp.map A B) (tptp.const B A X))))
(assert (forall ((A tptp.ty) (B tptp.ty) (B1 tptp.uni) (A1 tptp.uni)) (=> (tptp.sort B B1) (= (tptp.get B A (tptp.const B A B1) A1) B1))))
(declare-fun tptp.array (tptp.ty) tptp.ty)
(declare-fun tptp.mk_array (tptp.ty Int tptp.uni) tptp.uni)
(assert (forall ((A tptp.ty) (X Int) (X1 tptp.uni)) (tptp.sort (tptp.array A) (tptp.mk_array A X X1))))
(declare-fun tptp.length (tptp.ty tptp.uni) Int)
(assert (forall ((A tptp.ty) (U Int) (U1 tptp.uni)) (= (tptp.length A (tptp.mk_array A U U1)) U)))
(declare-fun tptp.elts (tptp.ty tptp.uni) tptp.uni)
(assert (forall ((A tptp.ty) (X tptp.uni)) (tptp.sort (tptp.map tptp.int A) (tptp.elts A X))))
(assert (forall ((A tptp.ty) (U Int) (U1 tptp.uni)) (=> (tptp.sort (tptp.map tptp.int A) U1) (= (tptp.elts A (tptp.mk_array A U U1)) U1))))
(assert (forall ((A tptp.ty) (U tptp.uni)) (= U (tptp.mk_array A (tptp.length A U) (tptp.elts A U)))))
(declare-fun tptp.get1 (tptp.ty tptp.uni Int) tptp.uni)
(assert (forall ((A tptp.ty) (X tptp.uni) (X1 Int)) (tptp.sort A (tptp.get1 A X X1))))
(declare-fun tptp.t2tb (Int) tptp.uni)
(assert (forall ((X Int)) (tptp.sort tptp.int (tptp.t2tb X))))
(declare-fun tptp.tb2t (tptp.uni) Int)
(assert (forall ((I Int)) (= (tptp.tb2t (tptp.t2tb I)) I)))
(assert (forall ((J tptp.uni)) (= (tptp.t2tb (tptp.tb2t J)) J)))
(assert (forall ((A tptp.ty) (A1 tptp.uni) (I Int)) (= (tptp.get1 A A1 I) (tptp.get A tptp.int (tptp.elts A A1) (tptp.t2tb I)))))
(declare-fun tptp.set1 (tptp.ty tptp.uni Int tptp.uni) tptp.uni)
(assert (forall ((A tptp.ty) (X tptp.uni) (X1 Int) (X2 tptp.uni)) (tptp.sort (tptp.array A) (tptp.set1 A X X1 X2))))
(assert (forall ((A tptp.ty) (A1 tptp.uni) (I Int) (V tptp.uni)) (= (tptp.set1 A A1 I V) (tptp.mk_array A (tptp.length A A1) (tptp.set A tptp.int (tptp.elts A A1) (tptp.t2tb I) V)))))
(declare-fun tptp.make (tptp.ty Int tptp.uni) tptp.uni)
(assert (forall ((A tptp.ty) (X Int) (X1 tptp.uni)) (tptp.sort (tptp.array A) (tptp.make A X X1))))
(assert (forall ((A tptp.ty) (N Int) (V tptp.uni)) (= (tptp.make A N V) (tptp.mk_array A N (tptp.const A tptp.int V)))))
(declare-fun tptp.occ (tptp.ty tptp.uni tptp.uni Int Int) Int)
(assert (forall ((A tptp.ty) (V tptp.uni) (M tptp.uni) (L Int) (U Int)) (=> (<= U L) (= (tptp.occ A V M L U) 0))))
(assert (forall ((A tptp.ty) (V tptp.uni) (M tptp.uni) (L Int) (U Int)) (let ((_let_1 (- U 1))) (=> (tptp.sort A V) (=> (< L U) (=> (not (= (tptp.get A tptp.int M (tptp.t2tb _let_1)) V)) (= (tptp.occ A V M L U) (tptp.occ A V M L _let_1))))))))
(assert (forall ((A tptp.ty) (V tptp.uni) (M tptp.uni) (L Int) (U Int)) (let ((_let_1 (- U 1))) (=> (< L U) (=> (= (tptp.get A tptp.int M (tptp.t2tb _let_1)) V) (= (tptp.occ A V M L U) (+ 1 (tptp.occ A V M L _let_1))))))))
(assert (forall ((A tptp.ty) (V tptp.uni) (M tptp.uni) (L Int) (U Int)) (let ((_let_1 (tptp.occ A V M L U))) (=> (<= L U) (and (<= 0 _let_1) (<= _let_1 (- U L)))))))
(assert (forall ((A tptp.ty) (V tptp.uni) (M tptp.uni) (L Int) (Mid Int) (U Int)) (=> (and (<= L Mid) (<= Mid U)) (= (tptp.occ A V M L U) (+ (tptp.occ A V M L Mid) (tptp.occ A V M Mid U))))))
(assert (forall ((A tptp.ty) (V tptp.uni) (M tptp.uni) (L Int) (U Int)) (=> (tptp.sort A V) (=> (forall ((I Int)) (=> (and (<= L I) (< I U)) (not (= (tptp.get A tptp.int M (tptp.t2tb I)) V)))) (= (tptp.occ A V M L U) 0)))))
(assert (forall ((A tptp.ty) (V tptp.uni) (M tptp.uni) (L Int) (U Int)) (=> (tptp.sort A V) (=> (< 0 (tptp.occ A V M L U)) (exists ((I Int)) (and (<= L I) (< I U) (= (tptp.get A tptp.int M (tptp.t2tb I)) V)))))))
(assert (forall ((A tptp.ty) (M tptp.uni) (L Int) (U Int) (I Int)) (=> (and (<= L I) (< I U)) (< 0 (tptp.occ A (tptp.get A tptp.int M (tptp.t2tb I)) M L U)))))
(assert (forall ((A tptp.ty) (V tptp.uni) (M1 tptp.uni) (M2 tptp.uni) (L Int) (U Int)) (=> (forall ((I Int)) (let ((_let_1 (tptp.t2tb I))) (=> (and (<= L I) (< I U)) (= (tptp.get A tptp.int M1 _let_1) (tptp.get A tptp.int M2 _let_1))))) (= (tptp.occ A V M1 L U) (tptp.occ A V M2 L U)))))
(declare-fun tptp.permut (tptp.ty tptp.uni tptp.uni Int Int) Bool)
(assert (forall ((A tptp.ty) (M1 tptp.uni) (M2 tptp.uni) (L Int) (U Int)) (let ((_let_1 (tptp.permut A M1 M2 L U))) (and (=> _let_1 (forall ((V tptp.uni)) (= (tptp.occ A V M1 L U) (tptp.occ A V M2 L U)))) (=> (forall ((V tptp.uni)) (=> (tptp.sort A V) (= (tptp.occ A V M1 L U) (tptp.occ A V M2 L U)))) _let_1)))))
(assert (forall ((A tptp.ty) (A1 tptp.uni) (A2 tptp.uni) (A3 tptp.uni) (L Int) (U Int)) (=> (tptp.permut A A1 A2 L U) (=> (tptp.permut A A2 A3 L U) (tptp.permut A A1 A3 L U)))))
(assert (forall ((A tptp.ty) (A1 tptp.uni) (A2 tptp.uni) (L Int) (U Int) (I Int)) (=> (tptp.permut A A1 A2 L U) (=> (and (<= L I) (< I U)) (exists ((J Int)) (and (<= L J) (< J U) (= (tptp.get A tptp.int A1 (tptp.t2tb J)) (tptp.get A tptp.int A2 (tptp.t2tb I)))))))))
(declare-fun tptp.map_eq_sub (tptp.ty tptp.uni tptp.uni Int Int) Bool)
(assert (forall ((A tptp.ty) (A1 tptp.uni) (A2 tptp.uni) (L Int) (U Int)) (= (tptp.map_eq_sub A A1 A2 L U) (forall ((I Int)) (let ((_let_1 (tptp.t2tb I))) (=> (and (<= L I) (< I U)) (= (tptp.get A tptp.int A1 _let_1) (tptp.get A tptp.int A2 _let_1))))))))
(declare-fun tptp.array_eq_sub (tptp.ty tptp.uni tptp.uni Int Int) Bool)
(assert (forall ((A tptp.ty) (A1 tptp.uni) (A2 tptp.uni) (L Int) (U Int)) (let ((_let_1 (tptp.length A A1))) (= (tptp.array_eq_sub A A1 A2 L U) (and (= _let_1 (tptp.length A A2)) (<= 0 L) (<= L _let_1) (<= 0 U) (<= U _let_1) (tptp.map_eq_sub A (tptp.elts A A1) (tptp.elts A A2) L U))))))
(declare-fun tptp.array_eq (tptp.ty tptp.uni tptp.uni) Bool)
(assert (forall ((A tptp.ty) (A1 tptp.uni) (A2 tptp.uni)) (let ((_let_1 (tptp.length A A1))) (= (tptp.array_eq A A1 A2) (and (= _let_1 (tptp.length A A2)) (tptp.map_eq_sub A (tptp.elts A A1) (tptp.elts A A2) 0 _let_1))))))
(declare-fun tptp.exchange (tptp.ty tptp.uni tptp.uni Int Int Int Int) Bool)
(assert (forall ((A tptp.ty) (A1 tptp.uni) (A2 tptp.uni) (L Int) (U Int) (I Int) (J Int)) (let ((_let_1 (tptp.t2tb I))) (let ((_let_2 (tptp.t2tb J))) (= (tptp.exchange A A1 A2 L U I J) (and (<= L I) (< I U) (<= L J) (< J U) (= (tptp.get A tptp.int A1 _let_1) (tptp.get A tptp.int A2 _let_2)) (= (tptp.get A tptp.int A1 _let_2) (tptp.get A tptp.int A2 _let_1)) (forall ((K Int)) (let ((_let_1 (tptp.t2tb K))) (=> (and (<= L K) (< K U)) (=> (not (= K I)) (=> (not (= K J)) (= (tptp.get A tptp.int A1 _let_1) (tptp.get A tptp.int A2 _let_1)))))))))))))
(assert (forall ((A tptp.ty) (A1 tptp.uni) (L Int) (U Int) (I Int) (J Int)) (let ((_let_1 (tptp.t2tb I))) (let ((_let_2 (tptp.t2tb J))) (=> (and (<= L I) (< I U)) (=> (and (<= L J) (< J U)) (tptp.exchange A A1 (tptp.set A tptp.int (tptp.set A tptp.int A1 _let_1 (tptp.get A tptp.int A1 _let_2)) _let_2 (tptp.get A tptp.int A1 _let_1)) L U I J)))))))
(declare-fun tptp.exchange1 (tptp.ty tptp.uni tptp.uni Int Int) Bool)
(assert (forall ((A tptp.ty) (A1 tptp.uni) (A2 tptp.uni) (I Int) (J Int)) (let ((_let_1 (tptp.length A A1))) (= (tptp.exchange1 A A1 A2 I J) (and (= _let_1 (tptp.length A A2)) (tptp.exchange A (tptp.elts A A1) (tptp.elts A A2) 0 _let_1 I J))))))
(declare-fun tptp.permut1 (tptp.ty tptp.uni tptp.uni Int Int) Bool)
(assert (forall ((A tptp.ty) (A1 tptp.uni) (A2 tptp.uni) (L Int) (U Int)) (let ((_let_1 (tptp.length A A1))) (= (tptp.permut1 A A1 A2 L U) (and (= _let_1 (tptp.length A A2)) (<= 0 L) (<= L _let_1) (<= 0 U) (<= U _let_1) (tptp.permut A (tptp.elts A A1) (tptp.elts A A2) L U))))))
(declare-fun tptp.permut_sub (tptp.ty tptp.uni tptp.uni Int Int) Bool)
(assert (forall ((A tptp.ty) (A1 tptp.uni) (A2 tptp.uni) (L Int) (U Int)) (let ((_let_1 (tptp.elts A A2))) (let ((_let_2 (tptp.elts A A1))) (= (tptp.permut_sub A A1 A2 L U) (and (tptp.map_eq_sub A _let_2 _let_1 0 L) (tptp.permut1 A A1 A2 L U) (tptp.map_eq_sub A _let_2 _let_1 U (tptp.length A A1))))))))
(declare-fun tptp.permut_all (tptp.ty tptp.uni tptp.uni) Bool)
(assert (forall ((A tptp.ty) (A1 tptp.uni) (A2 tptp.uni)) (let ((_let_1 (tptp.length A A1))) (= (tptp.permut_all A A1 A2) (and (= _let_1 (tptp.length A A2)) (tptp.permut A (tptp.elts A A1) (tptp.elts A A2) 0 _let_1))))))
(assert (forall ((A tptp.ty) (A1 tptp.uni) (A2 tptp.uni) (I Int) (J Int) (L Int) (U Int)) (=> (tptp.exchange1 A A1 A2 I J) (=> (and (<= L I) (< I U)) (=> (and (<= L J) (< J U)) (=> (<= 0 L) (=> (<= U (tptp.length A A1)) (tptp.permut_sub A A1 A2 L U))))))))
(assert (forall ((A tptp.ty) (A1 tptp.uni) (A2 tptp.uni) (L1 Int) (U1 Int) (L2 Int) (U2 Int)) (=> (tptp.permut_sub A A1 A2 L1 U1) (=> (and (<= 0 L2) (<= L2 L1)) (=> (and (<= U1 U2) (<= U2 (tptp.length A A1))) (tptp.permut_sub A A1 A2 L2 U2))))))
(assert (forall ((A tptp.ty) (A1 tptp.uni) (A2 tptp.uni) (I Int) (J Int)) (=> (tptp.exchange1 A A1 A2 I J) (tptp.permut_all A A1 A2))))
(declare-sort tptp.param 0)
(declare-fun tptp.param1 () tptp.ty)
(declare-sort tptp.elt 0)
(declare-fun tptp.elt1 () tptp.ty)
(declare-fun tptp.le (tptp.param tptp.elt tptp.elt) Bool)
(assert (forall ((P tptp.param) (X tptp.elt)) (tptp.le P X X)))
(assert (forall ((P tptp.param) (X tptp.elt) (Y tptp.elt)) (=> (not (tptp.le P X Y)) (tptp.le P Y X))))
(assert (forall ((P tptp.param) (X tptp.elt) (Y tptp.elt) (Z tptp.elt)) (=> (and (tptp.le P X Y) (tptp.le P Y Z)) (tptp.le P X Z))))
(declare-sort tptp.array_elt 0)
(declare-fun tptp.sorted_sub2 (tptp.param tptp.array_elt Int Int) Bool)
(declare-fun tptp.t2tb3 (tptp.array_elt) tptp.uni)
(assert (forall ((X tptp.array_elt)) (tptp.sort (tptp.array tptp.elt1) (tptp.t2tb3 X))))
(declare-fun tptp.tb2t3 (tptp.uni) tptp.array_elt)
(assert (forall ((I tptp.array_elt)) (= (tptp.tb2t3 (tptp.t2tb3 I)) I)))
(assert (forall ((J tptp.uni)) (= (tptp.t2tb3 (tptp.tb2t3 J)) J)))
(declare-fun tptp.t2tb4 (tptp.elt) tptp.uni)
(assert (forall ((X tptp.elt)) (tptp.sort tptp.elt1 (tptp.t2tb4 X))))
(declare-fun tptp.tb2t4 (tptp.uni) tptp.elt)
(assert (forall ((I tptp.elt)) (= (tptp.tb2t4 (tptp.t2tb4 I)) I)))
(assert (forall ((J tptp.uni)) (=> (tptp.sort tptp.elt1 J) (= (tptp.t2tb4 (tptp.tb2t4 J)) J))))
(assert (forall ((P tptp.param) (A tptp.array_elt) (L Int) (U Int)) (= (tptp.sorted_sub2 P A L U) (forall ((I1 Int) (I2 Int)) (let ((_let_1 (tptp.t2tb3 A))) (=> (and (<= L I1) (<= I1 I2) (< I2 U)) (tptp.le P (tptp.tb2t4 (tptp.get1 tptp.elt1 _let_1 I1)) (tptp.tb2t4 (tptp.get1 tptp.elt1 _let_1 I2)))))))))
(declare-fun tptp.sorted1 (tptp.param tptp.array_elt) Bool)
(assert (forall ((P tptp.param) (A tptp.array_elt)) (= (tptp.sorted1 P A) (tptp.sorted_sub2 P A 0 (tptp.length tptp.elt1 (tptp.t2tb3 A))))))
(declare-sort tptp.map_int_elt 0)
(declare-fun tptp.t2tb5 (tptp.map_int_elt) tptp.uni)
(assert (forall ((X tptp.map_int_elt)) (tptp.sort (tptp.map tptp.int tptp.elt1) (tptp.t2tb5 X))))
(declare-fun tptp.tb2t5 (tptp.uni) tptp.map_int_elt)
(assert (forall ((I tptp.map_int_elt)) (= (tptp.tb2t5 (tptp.t2tb5 I)) I)))
(assert (forall ((J tptp.uni)) (=> (tptp.sort (tptp.map tptp.int tptp.elt1) J) (= (tptp.t2tb5 (tptp.tb2t5 J)) J))))
(assert (not (forall ((P tptp.param) (A Int) (A1 tptp.map_int_elt)) (=> (<= 0 A) (=> (<= 0 (- A 1)) (forall ((A2 tptp.map_int_elt) (I Int)) (let ((_let_1 (tptp.mk_array tptp.elt1 A (tptp.t2tb5 A2)))) (=> (and (<= 0 I) (<= I (- A 1))) (=> (and (tptp.permut_all tptp.elt1 (tptp.mk_array tptp.elt1 A (tptp.t2tb5 A1)) _let_1) (tptp.sorted_sub2 P (tptp.tb2t3 _let_1) 0 I)) (forall ((J Int) (A3 tptp.map_int_elt)) (let ((_let_1 (< J A))) (let ((_let_2 (<= 0 J))) (let ((_let_3 (and _let_2 _let_1))) (let ((_let_4 (- J 1))) (let ((_let_5 (and (<= 0 _let_4) (< _let_4 A)))) (let ((_let_6 (tptp.t2tb5 A3))) (let ((_let_7 (tptp.mk_array tptp.elt1 A _let_6))) (let ((_let_8 (tptp.tb2t3 _let_7))) (=> (and _let_2 (<= J I) (tptp.permut_all tptp.elt1 (tptp.mk_array tptp.elt1 A (tptp.t2tb5 A1)) _let_7) (tptp.sorted_sub2 P _let_8 0 J) (tptp.sorted_sub2 P _let_8 J (+ I 1)) (forall ((K1 Int) (K2 Int)) (let ((_let_1 (tptp.t2tb5 A3))) (=> (and (<= 0 K1) (< K1 J) (<= (+ J 1) K2) (<= K2 I)) (tptp.le P (tptp.tb2t4 (tptp.get tptp.elt1 tptp.int _let_1 (tptp.t2tb K1))) (tptp.tb2t4 (tptp.get tptp.elt1 tptp.int _let_1 (tptp.t2tb K2)))))))) (=> (< 0 J) (=> (and (<= 0 A) _let_2 _let_1) (=> _let_5 (=> (not (tptp.le P (tptp.tb2t4 (tptp.get tptp.elt1 tptp.int _let_6 (tptp.t2tb _let_4))) (tptp.tb2t4 (tptp.get tptp.elt1 tptp.int _let_6 (tptp.t2tb J))))) (=> _let_3 (=> _let_5 (=> _let_3 (forall ((A4 tptp.map_int_elt)) (let ((_let_1 (- J 1))) (let ((_let_2 (tptp.t2tb5 A3))) (=> (and (<= 0 A) (= A4 (tptp.tb2t5 (tptp.set tptp.elt1 tptp.int _let_2 (tptp.t2tb J) (tptp.get tptp.elt1 tptp.int _let_2 (tptp.t2tb _let_1)))))) (=> (and (<= 0 _let_1) (< _let_1 A)) (forall ((A5 tptp.map_int_elt)) (let ((_let_1 (- J 1))) (let ((_let_2 (tptp.t2tb5 A3))) (=> (and (<= 0 A) (= A5 (tptp.tb2t5 (tptp.set tptp.elt1 tptp.int (tptp.t2tb5 A4) (tptp.t2tb _let_1) (tptp.get tptp.elt1 tptp.int _let_2 (tptp.t2tb J)))))) (=> (tptp.exchange1 tptp.elt1 (tptp.mk_array tptp.elt1 A _let_2) (tptp.mk_array tptp.elt1 A (tptp.t2tb5 A5)) _let_1 J) (forall ((J1 Int)) (=> (= J1 (- J 1)) (tptp.sorted_sub2 P (tptp.tb2t3 (tptp.mk_array tptp.elt1 A (tptp.t2tb5 A5))) J1 (+ I 1))))))))))))))))))))))))))))))))))))))))
(check-sat)
(exit)
